(set-logic QF_S)
(declare-fun var0 () String)
(assert (str.in.re var0 (re.++ (re.* (re.+ (str.to.re "0"))) (re.++ (re.* (re.* (str.to.re "111"))) (re.++ (re.union (re.* (str.to.re "22")) (re.* (str.to.re "33"))) (re.++ (re.union (re.union (str.to.re "44") (str.to.re "555")) (re.union (str.to.re "666") (str.to.re "77"))) (re.++ (re.* (re.+ (str.to.re "8"))) (re.++ (re.+ (re.+ (str.to.re "9"))) (re.++ (re.union (re.union (str.to.re "a") (str.to.re "bb")) (re.union (str.to.re "c") (str.to.re "dd"))) (re.++ (re.+ (re.+ (str.to.re "e"))) (re.++ (re.* (re.* (str.to.re "f"))) (re.++ (re.* (re.+ (str.to.re "gg"))) (re.++ (re.* (re.+ (str.to.re "hh"))) (re.++ (re.* (re.union (str.to.re "i") (str.to.re "jjj"))) (re.++ (re.+ (re.* (str.to.re "k"))) (re.++ (re.+ (re.* (str.to.re "ll"))) (re.++ (re.* (re.* (str.to.re "mmm"))) (re.++ (re.union (re.* (str.to.re "n")) (re.* (str.to.re "ooo"))) (re.++ (re.* (re.+ (str.to.re "ppp"))) (re.++ (re.union (re.union (str.to.re "qq") (str.to.re "rr")) (re.union (str.to.re "s") (str.to.re "tt"))) (re.++ (re.+ (re.+ (str.to.re "u"))) (re.++ (re.union (re.+ (str.to.re "vv")) (re.+ (str.to.re "ww"))) (re.++ (re.* (re.+ (str.to.re "x"))) (re.++ (re.union (re.* (str.to.re "yy")) (re.* (str.to.re "zzz"))) (re.++ (re.union (re.+ (str.to.re "A")) (re.+ (str.to.re "BBB"))) (re.++ (re.union (re.* (str.to.re "CC")) (re.* (str.to.re "D"))) (re.++ (re.union (re.union (str.to.re "E") (str.to.re "FFF")) (re.union (str.to.re "GG") (str.to.re "HH"))) (re.++ (re.* (re.+ (str.to.re "I"))) (re.++ (re.* (re.+ (str.to.re "JJJ"))) (re.++ (re.+ (re.union (str.to.re "KKK") (str.to.re "LLL"))) (re.++ (re.+ (re.* (str.to.re "M"))) (re.++ (re.+ (re.+ (str.to.re "N"))) (re.+ (re.* (str.to.re "O")))))))))))))))))))))))))))))))))))
(check-sat)